##########MEASURE FORCES##########################################################

#------------READ STRUCTURE-----------------------------------------------------------
units			lj
atom_style		atomic
read_data		lmp.in.x0
#------------LJ Potentials------------------------------------------------------------------
pair_style		lj/cut 2.5
pair_coeff		* * 1.0 1.0
pair_modify          	shift yes

#------DUMP FORCES---------------------------------------------------------------------------
	fix			1 all nve
	dump 			force all custom 1 dump.force fx fy fz
	dump_modify 		force sort id
	run	1
